param set_len = 20;
param target_sum = 183616329;
param values := [1] 1874633 [2] 11817084 [3] 9178158 [4] 32524197 [5] 159373 [6] 30768588 [7] 18028561 [8] 32088154 [9] 28055122 [10] 12328948 [11] 4586787 [12] 2797954 [13] 27522395 [14] 17101185 [15] 3136992 [16] 13828142 [17] 13210116 [18] 21600543 [19] 28108236 [20] 33302139 ;
